SYSTEM = Na2Mn2FeVO4
ALGO = A
EDIFF = 1e-03
ENCUT = 520
IBRION = 2
ICHARGE = 1
ISIF = 3
ISMEAR = 0
SIGMA = 0.05
ISYM = 0
METAGGA = SCAN
LORBIT = 11
LASPH = True
LREAL = Auto
LWAVE = False
LCHARG = False
LASPH = True
NELM = 1000
NELMIN = 6
NSW = 99
PREC = Accurate
ISPIN = 2
MAGMOM = 8*0.6 8*5 4*5 12*0.6 48*0.6
NUPDOWN = 60
