Na8 Mn8 V12 Fe4 O48
1.0
11.148595 0.000000 -4.457540
0.000000 12.956300 0.000000
0.000000 0.000000 6.844600
Na Mn V O
8 12 12 48
direct
0.500000 0.000000 0.000000 Na+
0.500000 0.000000 0.500000 Na+
0.000000 0.500000 0.000000 Na+
0.000000 0.500000 0.500000 Na+
0.500000 0.493800 0.250000 Na+
0.500000 0.506200 0.750000 Na+
0.000000 0.993800 0.250000 Na+
0.000000 0.006200 0.750000 Na+
0.000000 0.267390 0.250000 Mn2+
0.000000 0.732610 0.750000 Mn2+
0.500000 0.767390 0.250000 Mn2+
0.500000 0.232610 0.750000 Mn2+
0.211670 0.158370 0.124260 Mn2+
0.788330 0.841630 0.875740 Mn2+
0.288330 0.658370 0.375740 Mn2+
0.711670 0.341630 0.624260 Mn2+
0.000000 0.291250 0.750000 V5+
0.000000 0.708750 0.250000 V5+
0.500000 0.791250 0.750000 V5+
0.500000 0.208750 0.250000 V5+
0.730620 0.388890 0.121440 V5+
0.269380 0.611110 0.878560 V5+
0.269380 0.388890 0.378560 V5+
0.730620 0.611110 0.621440 V5+
0.230620 0.888890 0.121440 V5+
0.769380 0.111110 0.878560 V5+
0.769380 0.888890 0.378560 V5+
0.230620 0.111110 0.621440 V5+
0.788330 0.158370 0.375740 Fe3+
0.211670 0.841630 0.624260 Fe3+
0.711670 0.658370 0.124260 Fe3+
0.288330 0.341630 0.875740 Fe3+
0.661600 0.506470 0.101000 O2-
0.338400 0.493530 0.899000 O2-
0.338400 0.506470 0.399000 O2-
0.661600 0.493530 0.601000 O2-
0.161600 0.006470 0.101000 O2-
0.838400 0.993530 0.899000 O2-
0.838400 0.006470 0.399000 O2-
0.161600 0.993530 0.601000 O2-
0.161400 0.171650 0.381000 O2-
0.838600 0.828350 0.619000 O2-
0.838600 0.171650 0.119000 O2-
0.161400 0.828350 0.881000 O2-
0.661400 0.671650 0.381000 O2-
0.338600 0.328350 0.619000 O2-
0.338600 0.671650 0.119000 O2-
0.661400 0.328350 0.881000 O2-
0.717200 0.318000 0.325800 O2-
0.282800 0.682000 0.674200 O2-
0.282800 0.318000 0.174200 O2-
0.717200 0.682000 0.825800 O2-
0.217200 0.818000 0.325800 O2-
0.782800 0.182000 0.674200 O2-
0.782800 0.818000 0.174200 O2-
0.217200 0.182000 0.825800 O2-
0.878600 0.402600 0.175400 O2-
0.121400 0.597400 0.824600 O2-
0.121400 0.402600 0.324600 O2-
0.878600 0.597400 0.675400 O2-
0.378600 0.902600 0.175400 O2-
0.621400 0.097400 0.824600 O2-
0.621400 0.902600 0.324600 O2-
0.378600 0.097400 0.675400 O2-
0.039700 0.219500 0.980100 O2-
0.960300 0.780500 0.019900 O2-
0.960300 0.219500 0.519900 O2-
0.039700 0.780500 0.480100 O2-
0.539700 0.719500 0.980100 O2-
0.460300 0.280500 0.019900 O2-
0.460300 0.719500 0.519900 O2-
0.539700 0.280500 0.480100 O2-
0.110400 0.374600 0.756400 O2-
0.889600 0.625400 0.243600 O2-
0.889600 0.374600 0.743600 O2-
0.110400 0.625400 0.256400 O2-
0.610400 0.874600 0.756400 O2-
0.389600 0.125400 0.243600 O2-
0.389600 0.874600 0.743600 O2-
0.610400 0.125400 0.256400 O2-
